800
3200
768 800
768 767
768 737
768 736
767 768
767 799
767 766
767 735
766 767
766 798
766 765
766 734
765 766
765 797
765 764
765 733
764 765
764 796
764 763
764 732
763 764
763 795
763 762
763 731
762 763
762 794
762 761
762 730
761 762
761 793
761 760
761 729
760 761
760 792
760 759
760 728
759 760
759 791
759 758
759 727
758 759
758 790
758 757
758 726
757 758
757 789
757 756
757 725
756 757
756 788
756 755
756 724
755 756
755 787
755 754
755 723
754 755
754 786
754 753
754 722
753 754
753 785
753 752
753 721
752 753
752 784
752 751
752 720
751 752
751 783
751 750
751 719
750 751
750 782
750 749
750 718
749 750
749 781
749 748
749 717
748 749
748 780
748 747
748 716
747 748
747 779
747 746
747 715
746 747
746 778
746 745
746 714
745 746
745 777
745 744
745 713
744 745
744 776
744 743
744 712
743 744
743 775
743 742
743 711
742 743
742 774
742 741
742 710
741 742
741 773
741 740
741 709
740 741
740 772
740 739
740 708
739 740
739 771
739 738
739 707
738 739
738 770
738 737
738 706
737 738
737 768
737 769
737 705
736 768
736 735
736 705
736 704
735 736
735 767
735 734
735 703
734 735
734 766
734 733
734 702
733 734
733 765
733 732
733 701
732 733
732 764
732 731
732 700
731 732
731 763
731 730
731 699
730 731
730 762
730 729
730 698
729 730
729 761
729 728
729 697
728 729
728 760
728 727
728 696
727 728
727 759
727 726
727 695
726 727
726 758
726 725
726 694
725 726
725 757
725 724
725 693
724 725
724 756
724 723
724 692
723 724
723 755
723 722
723 691
722 723
722 754
722 721
722 690
721 722
721 753
721 720
721 689
720 721
720 752
720 719
720 688
719 720
719 751
719 718
719 687
718 719
718 750
718 717
718 686
717 718
717 749
717 716
717 685
716 717
716 748
716 715
716 684
715 716
715 747
715 714
715 683
714 715
714 746
714 713
714 682
713 714
713 745
713 712
713 681
712 713
712 744
712 711
712 680
711 712
711 743
711 710
711 679
710 711
710 742
710 709
710 678
709 710
709 741
709 708
709 677
708 709
708 740
708 707
708 676
707 708
707 739
707 706
707 675
706 707
706 738
706 705
706 674
705 706
705 736
705 737
705 673
704 736
704 703
704 673
704 672
703 704
703 735
703 702
703 671
702 703
702 734
702 701
702 670
701 702
701 733
701 700
701 669
700 701
700 732
700 699
700 668
699 700
699 731
699 698
699 667
698 699
698 730
698 697
698 666
697 698
697 729
697 696
697 665
696 697
696 728
696 695
696 664
695 696
695 727
695 694
695 663
694 695
694 726
694 693
694 662
693 694
693 725
693 692
693 661
692 693
692 724
692 691
692 660
691 692
691 723
691 690
691 659
690 691
690 722
690 689
690 658
689 690
689 721
689 688
689 657
688 689
688 720
688 687
688 656
687 688
687 719
687 686
687 655
686 687
686 718
686 685
686 654
685 686
685 717
685 684
685 653
684 685
684 716
684 683
684 652
683 684
683 715
683 682
683 651
682 683
682 714
682 681
682 650
681 682
681 713
681 680
681 649
680 681
680 712
680 679
680 648
679 680
679 711
679 678
679 647
678 679
678 710
678 677
678 646
677 678
677 709
677 676
677 645
676 677
676 708
676 675
676 644
675 676
675 707
675 674
675 643
674 675
674 706
674 673
674 642
673 674
673 704
673 705
673 641
672 704
672 671
672 641
672 640
671 672
671 703
671 670
671 639
670 671
670 702
670 669
670 638
669 670
669 701
669 668
669 637
668 669
668 700
668 667
668 636
667 668
667 699
667 666
667 635
666 667
666 698
666 665
666 634
665 666
665 697
665 664
665 633
664 665
664 696
664 663
664 632
663 664
663 695
663 662
663 631
662 663
662 694
662 661
662 630
661 662
661 693
661 660
661 629
660 661
660 692
660 659
660 628
659 660
659 691
659 658
659 627
658 659
658 690
658 657
658 626
657 658
657 689
657 656
657 625
656 657
656 688
656 655
656 624
655 656
655 687
655 654
655 623
654 655
654 686
654 653
654 622
653 654
653 685
653 652
653 621
652 653
652 684
652 651
652 620
651 652
651 683
651 650
651 619
650 651
650 682
650 649
650 618
649 650
649 681
649 648
649 617
648 649
648 680
648 647
648 616
647 648
647 679
647 646
647 615
646 647
646 678
646 645
646 614
645 646
645 677
645 644
645 613
644 645
644 676
644 643
644 612
643 644
643 675
643 642
643 611
642 643
642 674
642 641
642 610
641 642
641 672
641 673
641 609
640 672
640 639
640 609
640 608
639 640
639 671
639 638
639 607
638 639
638 670
638 637
638 606
637 638
637 669
637 636
637 605
636 637
636 668
636 635
636 604
635 636
635 667
635 634
635 603
634 635
634 666
634 633
634 602
633 634
633 665
633 632
633 601
632 633
632 664
632 631
632 600
631 632
631 663
631 630
631 599
630 631
630 662
630 629
630 598
629 630
629 661
629 628
629 597
628 629
628 660
628 627
628 596
627 628
627 659
627 626
627 595
626 627
626 658
626 625
626 594
625 626
625 657
625 624
625 593
624 625
624 656
624 623
624 592
623 624
623 655
623 622
623 591
622 623
622 654
622 621
622 590
621 622
621 653
621 620
621 589
620 621
620 652
620 619
620 588
619 620
619 651
619 618
619 587
618 619
618 650
618 617
618 586
617 618
617 649
617 616
617 585
616 617
616 648
616 615
616 584
615 616
615 647
615 614
615 583
614 615
614 646
614 613
614 582
613 614
613 645
613 612
613 581
612 613
612 644
612 611
612 580
611 612
611 643
611 610
611 579
610 611
610 642
610 609
610 578
609 610
609 640
609 641
609 577
608 640
608 607
608 577
608 576
607 608
607 639
607 606
607 575
606 607
606 638
606 605
606 574
605 606
605 637
605 604
605 573
604 605
604 636
604 603
604 572
603 604
603 635
603 602
603 571
602 603
602 634
602 601
602 570
601 602
601 633
601 600
601 569
600 601
600 632
600 599
600 568
599 600
599 631
599 598
599 567
598 599
598 630
598 597
598 566
597 598
597 629
597 596
597 565
596 597
596 628
596 595
596 564
595 596
595 627
595 594
595 563
594 595
594 626
594 593
594 562
593 594
593 625
593 592
593 561
592 593
592 624
592 591
592 560
591 592
591 623
591 590
591 559
590 591
590 622
590 589
590 558
589 590
589 621
589 588
589 557
588 589
588 620
588 587
588 556
587 588
587 619
587 586
587 555
586 587
586 618
586 585
586 554
585 586
585 617
585 584
585 553
584 585
584 616
584 583
584 552
583 584
583 615
583 582
583 551
582 583
582 614
582 581
582 550
581 582
581 613
581 580
581 549
580 581
580 612
580 579
580 548
579 580
579 611
579 578
579 547
578 579
578 610
578 577
578 546
577 578
577 608
577 609
577 545
576 608
576 575
576 545
576 544
575 576
575 607
575 574
575 543
574 575
574 606
574 573
574 542
573 574
573 605
573 572
573 541
572 573
572 604
572 571
572 540
571 572
571 603
571 570
571 539
570 571
570 602
570 569
570 538
569 570
569 601
569 568
569 537
568 569
568 600
568 567
568 536
567 568
567 599
567 566
567 535
566 567
566 598
566 565
566 534
565 566
565 597
565 564
565 533
564 565
564 596
564 563
564 532
563 564
563 595
563 562
563 531
562 563
562 594
562 561
562 530
561 562
561 593
561 560
561 529
560 561
560 592
560 559
560 528
559 560
559 591
559 558
559 527
558 559
558 590
558 557
558 526
557 558
557 589
557 556
557 525
556 557
556 588
556 555
556 524
555 556
555 587
555 554
555 523
554 555
554 586
554 553
554 522
553 554
553 585
553 552
553 521
552 553
552 584
552 551
552 520
551 552
551 583
551 550
551 519
550 551
550 582
550 549
550 518
549 550
549 581
549 548
549 517
548 549
548 580
548 547
548 516
547 548
547 579
547 546
547 515
546 547
546 578
546 545
546 514
545 546
545 576
545 577
545 513
544 576
544 543
544 513
544 512
543 544
543 575
543 542
543 511
542 543
542 574
542 541
542 510
541 542
541 573
541 540
541 509
540 541
540 572
540 539
540 508
539 540
539 571
539 538
539 507
538 539
538 570
538 537
538 506
537 538
537 569
537 536
537 505
536 537
536 568
536 535
536 504
535 536
535 567
535 534
535 503
534 535
534 566
534 533
534 502
533 534
533 565
533 532
533 501
532 533
532 564
532 531
532 500
531 532
531 563
531 530
531 499
530 531
530 562
530 529
530 498
529 530
529 561
529 528
529 497
528 529
528 560
528 527
528 496
527 528
527 559
527 526
527 495
526 527
526 558
526 525
526 494
525 526
525 557
525 524
525 493
524 525
524 556
524 523
524 492
523 524
523 555
523 522
523 491
522 523
522 554
522 521
522 490
521 522
521 553
521 520
521 489
520 521
520 552
520 519
520 488
519 520
519 551
519 518
519 487
518 519
518 550
518 517
518 486
517 518
517 549
517 516
517 485
516 517
516 548
516 515
516 484
515 516
515 547
515 514
515 483
514 515
514 546
514 513
514 482
513 514
513 544
513 545
513 481
512 544
512 511
512 481
512 480
511 512
511 543
511 510
511 479
510 511
510 542
510 509
510 478
509 510
509 541
509 508
509 477
508 509
508 540
508 507
508 476
507 508
507 539
507 506
507 475
506 507
506 538
506 505
506 474
505 506
505 537
505 504
505 473
504 505
504 536
504 503
504 472
503 504
503 535
503 502
503 471
502 503
502 534
502 501
502 470
501 502
501 533
501 500
501 469
500 501
500 532
500 499
500 468
499 500
499 531
499 498
499 467
498 499
498 530
498 497
498 466
497 498
497 529
497 496
497 465
496 497
496 528
496 495
496 464
495 496
495 527
495 494
495 463
494 495
494 526
494 493
494 462
493 494
493 525
493 492
493 461
492 493
492 524
492 491
492 460
491 492
491 523
491 490
491 459
490 491
490 522
490 489
490 458
489 490
489 521
489 488
489 457
488 489
488 520
488 487
488 456
487 488
487 519
487 486
487 455
486 487
486 518
486 485
486 454
485 486
485 517
485 484
485 453
484 485
484 516
484 483
484 452
483 484
483 515
483 482
483 451
482 483
482 514
482 481
482 450
481 482
481 512
481 513
481 449
480 512
480 479
480 449
480 448
479 480
479 511
479 478
479 447
478 479
478 510
478 477
478 446
477 478
477 509
477 476
477 445
476 477
476 508
476 475
476 444
475 476
475 507
475 474
475 443
474 475
474 506
474 473
474 442
473 474
473 505
473 472
473 441
472 473
472 504
472 471
472 440
471 472
471 503
471 470
471 439
470 471
470 502
470 469
470 438
469 470
469 501
469 468
469 437
468 469
468 500
468 467
468 436
467 468
467 499
467 466
467 435
466 467
466 498
466 465
466 434
465 466
465 497
465 464
465 433
464 465
464 496
464 463
464 432
463 464
463 495
463 462
463 431
462 463
462 494
462 461
462 430
461 462
461 493
461 460
461 429
460 461
460 492
460 459
460 428
459 460
459 491
459 458
459 427
458 459
458 490
458 457
458 426
457 458
457 489
457 456
457 425
456 457
456 488
456 455
456 424
455 456
455 487
455 454
455 423
454 455
454 486
454 453
454 422
453 454
453 485
453 452
453 421
452 453
452 484
452 451
452 420
451 452
451 483
451 450
451 419
450 451
450 482
450 449
450 418
449 450
449 480
449 481
449 417
448 480
448 447
448 417
448 416
447 448
447 479
447 446
447 415
446 447
446 478
446 445
446 414
445 446
445 477
445 444
445 413
444 445
444 476
444 443
444 412
443 444
443 475
443 442
443 411
442 443
442 474
442 441
442 410
441 442
441 473
441 440
441 409
440 441
440 472
440 439
440 408
439 440
439 471
439 438
439 407
438 439
438 470
438 437
438 406
437 438
437 469
437 436
437 405
436 437
436 468
436 435
436 404
435 436
435 467
435 434
435 403
434 435
434 466
434 433
434 402
433 434
433 465
433 432
433 401
432 433
432 464
432 431
432 400
431 432
431 463
431 430
431 399
430 431
430 462
430 429
430 398
429 430
429 461
429 428
429 397
428 429
428 460
428 427
428 396
427 428
427 459
427 426
427 395
426 427
426 458
426 425
426 394
425 426
425 457
425 424
425 393
424 425
424 456
424 423
424 392
423 424
423 455
423 422
423 391
422 423
422 454
422 421
422 390
421 422
421 453
421 420
421 389
420 421
420 452
420 419
420 388
419 420
419 451
419 418
419 387
418 419
418 450
418 417
418 386
417 418
417 448
417 449
417 385
416 448
416 415
416 385
416 384
415 416
415 447
415 414
415 383
414 415
414 446
414 413
414 382
413 414
413 445
413 412
413 381
412 413
412 444
412 411
412 380
411 412
411 443
411 410
411 379
410 411
410 442
410 409
410 378
409 410
409 441
409 408
409 377
408 409
408 440
408 407
408 376
407 408
407 439
407 406
407 375
406 407
406 438
406 405
406 374
405 406
405 437
405 404
405 373
404 405
404 436
404 403
404 372
403 404
403 435
403 402
403 371
402 403
402 434
402 401
402 370
401 402
401 433
401 400
401 369
400 401
400 432
400 399
400 368
399 400
399 431
399 398
399 367
398 399
398 430
398 397
398 366
397 398
397 429
397 396
397 365
396 397
396 428
396 395
396 364
395 396
395 427
395 394
395 363
394 395
394 426
394 393
394 362
393 394
393 425
393 392
393 361
392 393
392 424
392 391
392 360
391 392
391 423
391 390
391 359
390 391
390 422
390 389
390 358
389 390
389 421
389 388
389 357
388 389
388 420
388 387
388 356
387 388
387 419
387 386
387 355
386 387
386 418
386 385
386 354
385 386
385 416
385 417
385 353
384 416
384 383
384 353
384 352
383 384
383 415
383 382
383 351
382 383
382 414
382 381
382 350
381 382
381 413
381 380
381 349
380 381
380 412
380 379
380 348
379 380
379 411
379 378
379 347
378 379
378 410
378 377
378 346
377 378
377 409
377 376
377 345
166 167
166 198
166 165
166 134
165 166
165 197
165 164
165 133
164 165
164 196
164 163
164 132
163 164
163 195
163 162
163 131
162 163
162 194
162 161
162 130
161 162
161 192
161 193
161 129
160 192
160 159
160 129
160 128
159 160
159 191
159 158
159 127
158 159
158 190
158 157
158 126
157 158
157 189
157 156
157 125
156 157
156 188
156 155
156 124
155 156
155 187
155 154
155 123
154 155
154 186
154 153
154 122
153 154
153 185
153 152
153 121
152 153
152 184
152 151
152 120
151 152
151 183
151 150
151 119
150 151
150 182
150 149
150 118
149 150
149 181
149 148
149 117
148 149
148 180
148 147
148 116
147 148
147 179
147 146
147 115
146 147
146 178
146 145
146 114
145 146
145 177
145 144
145 113
144 145
144 176
144 143
144 112
143 144
143 175
143 142
143 111
142 143
142 174
142 141
142 110
141 142
141 173
141 140
141 109
140 141
140 172
140 139
140 108
139 140
139 171
139 138
139 107
138 139
138 170
138 137
138 106
137 138
137 169
137 136
137 105
136 137
136 168
136 135
136 104
135 136
135 167
135 134
135 103
134 135
134 166
134 133
134 102
133 134
133 165
133 132
133 101
132 133
132 164
132 131
132 100
131 132
131 163
131 130
131 99
130 131
130 162
130 129
130 98
129 130
129 160
129 161
129 97
128 160
128 127
128 97
128 96
127 128
127 159
127 126
127 95
126 127
126 158
126 125
126 94
125 126
125 157
125 124
125 93
124 125
124 156
124 123
124 92
123 124
123 155
123 122
123 91
122 123
122 154
122 121
122 90
121 122
121 153
121 120
121 89
120 121
120 152
120 119
120 88
119 120
119 151
119 118
119 87
118 119
118 150
118 117
118 86
117 118
117 149
117 116
117 85
116 117
116 148
116 115
116 84
115 116
115 147
115 114
115 83
114 115
114 146
114 113
114 82
113 114
113 145
113 112
113 81
112 113
112 144
112 111
112 80
111 112
111 143
111 110
111 79
110 111
110 142
110 109
110 78
109 110
109 141
109 108
109 77
108 109
108 140
108 107
108 76
107 108
107 139
107 106
107 75
106 107
106 138
106 105
106 74
105 106
105 137
105 104
105 73
104 105
104 136
104 103
104 72
103 104
103 135
103 102
103 71
102 103
102 134
102 101
102 70
101 102
101 133
101 100
101 69
100 101
100 132
100 99
100 68
99 100
99 131
99 98
99 67
98 99
98 130
98 97
98 66
97 98
97 128
97 129
97 65
96 128
96 95
96 65
96 64
95 96
95 127
95 94
95 63
94 95
94 126
94 93
94 62
93 94
93 125
93 92
93 61
92 93
92 124
92 91
92 60
91 92
91 123
91 90
91 59
90 91
90 122
90 89
90 58
89 90
89 121
89 88
89 57
88 89
88 120
88 87
88 56
87 88
87 119
87 86
87 55
86 87
86 118
86 85
86 54
85 86
85 117
85 84
85 53
84 85
84 116
84 83
84 52
83 84
83 115
83 82
83 51
82 83
82 114
82 81
82 50
81 82
81 113
81 80
81 49
80 81
80 112
80 79
80 48
79 80
79 111
79 78
79 47
78 79
78 110
78 77
78 46
77 78
77 109
77 76
77 45
76 77
76 108
76 75
76 44
75 76
75 107
75 74
75 43
74 75
74 106
74 73
74 42
73 74
73 105
73 72
73 41
72 73
72 104
72 71
72 40
71 72
71 103
71 70
71 39
70 71
70 102
70 69
70 38
69 70
69 101
69 68
69 37
68 69
68 100
68 67
68 36
67 68
67 99
67 66
67 35
66 67
66 98
66 65
66 34
65 66
65 96
65 97
65 33
47 48
47 79
47 46
47 15
783 784
783 782
783 751
783 15
374 375
374 406
374 373
374 342
7 8
7 39
7 775
7 6
15 16
15 47
15 783
15 14
791 792
791 790
791 759
791 23
46 47
46 78
46 45
46 14
782 783
782 781
782 750
782 14
373 374
373 405
373 372
373 341
6 7
6 38
6 774
6 5
14 15
14 46
14 782
14 13
790 791
790 789
790 758
790 22
45 46
45 77
45 44
45 13
781 782
781 780
781 749
781 13
372 373
372 404
372 371
372 340
5 6
5 37
5 773
5 4
13 14
13 45
13 781
13 12
789 790
789 788
789 757
789 21
44 45
44 76
44 43
44 12
780 781
780 779
780 748
780 12
371 372
371 403
371 370
371 339
12 13
12 44
12 780
12 11
788 789
788 787
788 756
788 20
43 44
43 75
43 42
43 11
779 780
779 778
779 747
779 11
370 371
370 402
370 369
370 338
11 12
11 43
11 779
11 10
787 788
787 786
787 755
787 19
42 43
42 74
42 41
42 10
778 779
778 777
778 746
778 10
369 370
369 401
369 368
369 337
10 11
10 42
10 778
10 9
786 787
786 785
786 754
786 18
41 42
41 73
41 40
41 9
777 778
777 776
777 745
777 9
368 369
368 400
368 367
368 336
9 10
9 41
9 777
9 8
785 786
785 784
785 753
785 17
376 377
376 408
376 375
376 344
40 41
40 72
40 39
40 8
776 777
776 775
776 744
776 8
367 368
367 399
367 366
367 335
8 9
8 40
8 776
8 7
784 785
784 783
784 752
784 16
375 376
375 407
375 374
375 343
35 36
35 67
35 34
35 3
771 772
771 770
771 739
771 3
362 363
362 394
362 361
362 330
770 771
770 769
770 738
770 2
361 362
361 393
361 360
361 329
34 35
34 66
34 33
34 2
33 34
33 64
33 65
33 1
769 770
769 800
769 737
769 1
360 361
360 392
360 359
360 328
32 64
32 800
32 31
32 1
772 773
772 771
772 740
772 4
363 364
363 395
363 362
363 331
36 37
36 68
36 35
36 4
773 774
773 772
773 741
773 5
364 365
364 396
364 363
364 332
37 38
37 69
37 36
37 5
774 775
774 773
774 742
774 6
365 366
365 397
365 364
365 333
38 39
38 70
38 37
38 6
775 776
775 774
775 743
775 7
366 367
366 398
366 365
366 334
39 40
39 71
39 38
39 7
16 17
16 48
16 784
16 15
792 793
792 791
792 760
792 24
48 49
48 80
48 47
48 16
17 18
17 49
17 785
17 16
793 794
793 792
793 761
793 25
49 50
49 81
49 48
49 17
18 19
18 50
18 786
18 17
794 795
794 793
794 762
794 26
50 51
50 82
50 49
50 18
19 20
19 51
19 787
19 18
795 796
795 794
795 763
795 27
51 52
51 83
51 50
51 19
20 21
20 52
20 788
20 19
796 797
796 795
796 764
796 28
52 53
52 84
52 51
52 20
21 22
21 53
21 789
21 20
1 2
1 32
1 33
1 769
797 798
797 796
797 765
797 29
53 54
53 85
53 52
53 21
22 23
22 54
22 790
22 21
2 3
2 34
2 770
2 1
798 799
798 797
798 766
798 30
54 55
54 86
54 53
54 22
23 24
23 55
23 791
23 22
3 4
3 35
3 771
3 2
799 800
799 798
799 767
799 31
55 56
55 87
55 54
55 23
24 25
24 56
24 792
24 23
4 5
4 36
4 772
4 3
800 799
800 769
800 768
800 32
56 57
56 88
56 55
56 24
25 26
25 57
25 793
25 24
57 58
57 89
57 56
57 25
26 27
26 58
26 794
26 25
58 59
58 90
58 57
58 26
27 28
27 59
27 795
27 26
59 60
59 91
59 58
59 27
28 29
28 60
28 796
28 27
60 61
60 92
60 59
60 28
29 30
29 61
29 797
29 28
61 62
61 93
61 60
61 29
30 31
30 62
30 798
30 29
62 63
62 94
62 61
62 30
31 32
31 63
31 799
31 30
63 64
63 95
63 62
63 31
64 96
64 63
64 33
64 32
167 168
167 199
167 166
167 135
168 169
168 200
168 167
168 136
169 170
169 201
169 168
169 137
170 171
170 202
170 169
170 138
171 172
171 203
171 170
171 139
172 173
172 204
172 171
172 140
173 174
173 205
173 172
173 141
174 175
174 206
174 173
174 142
175 176
175 207
175 174
175 143
176 177
176 208
176 175
176 144
177 178
177 209
177 176
177 145
178 179
178 210
178 177
178 146
179 180
179 211
179 178
179 147
180 181
180 212
180 179
180 148
181 182
181 213
181 180
181 149
182 183
182 214
182 181
182 150
183 184
183 215
183 182
183 151
184 185
184 216
184 183
184 152
185 186
185 217
185 184
185 153
186 187
186 218
186 185
186 154
187 188
187 219
187 186
187 155
188 189
188 220
188 187
188 156
189 190
189 221
189 188
189 157
190 191
190 222
190 189
190 158
191 192
191 223
191 190
191 159
192 224
192 191
192 161
192 160
193 194
193 224
193 225
193 161
194 195
194 226
194 193
194 162
195 196
195 227
195 194
195 163
196 197
196 228
196 195
196 164
197 198
197 229
197 196
197 165
198 199
198 230
198 197
198 166
199 200
199 231
199 198
199 167
200 201
200 232
200 199
200 168
201 202
201 233
201 200
201 169
202 203
202 234
202 201
202 170
203 204
203 235
203 202
203 171
204 205
204 236
204 203
204 172
205 206
205 237
205 204
205 173
206 207
206 238
206 205
206 174
207 208
207 239
207 206
207 175
208 209
208 240
208 207
208 176
209 210
209 241
209 208
209 177
210 211
210 242
210 209
210 178
211 212
211 243
211 210
211 179
212 213
212 244
212 211
212 180
213 214
213 245
213 212
213 181
214 215
214 246
214 213
214 182
215 216
215 247
215 214
215 183
216 217
216 248
216 215
216 184
217 218
217 249
217 216
217 185
218 219
218 250
218 217
218 186
219 220
219 251
219 218
219 187
220 221
220 252
220 219
220 188
221 222
221 253
221 220
221 189
222 223
222 254
222 221
222 190
223 224
223 255
223 222
223 191
224 256
224 223
224 193
224 192
225 226
225 256
225 257
225 193
226 227
226 258
226 225
226 194
227 228
227 259
227 226
227 195
228 229
228 260
228 227
228 196
229 230
229 261
229 228
229 197
230 231
230 262
230 229
230 198
231 232
231 263
231 230
231 199
232 233
232 264
232 231
232 200
233 234
233 265
233 232
233 201
234 235
234 266
234 233
234 202
235 236
235 267
235 234
235 203
236 237
236 268
236 235
236 204
237 238
237 269
237 236
237 205
238 239
238 270
238 237
238 206
239 240
239 271
239 238
239 207
240 241
240 272
240 239
240 208
241 242
241 273
241 240
241 209
242 243
242 274
242 241
242 210
243 244
243 275
243 242
243 211
244 245
244 276
244 243
244 212
245 246
245 277
245 244
245 213
246 247
246 278
246 245
246 214
247 248
247 279
247 246
247 215
248 249
248 280
248 247
248 216
249 250
249 281
249 248
249 217
250 251
250 282
250 249
250 218
251 252
251 283
251 250
251 219
252 253
252 284
252 251
252 220
253 254
253 285
253 252
253 221
254 255
254 286
254 253
254 222
255 256
255 287
255 254
255 223
256 288
256 255
256 225
256 224
257 258
257 288
257 289
257 225
258 259
258 290
258 257
258 226
259 260
259 291
259 258
259 227
260 261
260 292
260 259
260 228
261 262
261 293
261 260
261 229
262 263
262 294
262 261
262 230
263 264
263 295
263 262
263 231
264 265
264 296
264 263
264 232
265 266
265 297
265 264
265 233
266 267
266 298
266 265
266 234
267 268
267 299
267 266
267 235
268 269
268 300
268 267
268 236
269 270
269 301
269 268
269 237
270 271
270 302
270 269
270 238
271 272
271 303
271 270
271 239
272 273
272 304
272 271
272 240
273 274
273 305
273 272
273 241
274 275
274 306
274 273
274 242
275 276
275 307
275 274
275 243
276 277
276 308
276 275
276 244
277 278
277 309
277 276
277 245
278 279
278 310
278 277
278 246
279 280
279 311
279 278
279 247
280 281
280 312
280 279
280 248
281 282
281 313
281 280
281 249
282 283
282 314
282 281
282 250
283 284
283 315
283 282
283 251
284 285
284 316
284 283
284 252
285 286
285 317
285 284
285 253
286 287
286 318
286 285
286 254
287 288
287 319
287 286
287 255
288 320
288 287
288 257
288 256
289 290
289 320
289 321
289 257
290 291
290 322
290 289
290 258
291 292
291 323
291 290
291 259
292 293
292 324
292 291
292 260
293 294
293 325
293 292
293 261
294 295
294 326
294 293
294 262
295 296
295 327
295 294
295 263
296 297
296 328
296 295
296 264
297 298
297 329
297 296
297 265
298 299
298 330
298 297
298 266
299 300
299 331
299 298
299 267
300 301
300 332
300 299
300 268
301 302
301 333
301 300
301 269
302 303
302 334
302 301
302 270
303 304
303 335
303 302
303 271
304 305
304 336
304 303
304 272
305 306
305 337
305 304
305 273
306 307
306 338
306 305
306 274
307 308
307 339
307 306
307 275
308 309
308 340
308 307
308 276
309 310
309 341
309 308
309 277
310 311
310 342
310 309
310 278
311 312
311 343
311 310
311 279
312 313
312 344
312 311
312 280
313 314
313 345
313 312
313 281
314 315
314 346
314 313
314 282
315 316
315 347
315 314
315 283
316 317
316 348
316 315
316 284
317 318
317 349
317 316
317 285
318 319
318 350
318 317
318 286
319 320
319 351
319 318
319 287
320 352
320 319
320 289
320 288
321 322
321 352
321 353
321 289
322 323
322 354
322 321
322 290
323 324
323 355
323 322
323 291
324 325
324 356
324 323
324 292
325 326
325 357
325 324
325 293
326 327
326 358
326 325
326 294
327 328
327 359
327 326
327 295
328 329
328 360
328 327
328 296
329 330
329 361
329 328
329 297
330 331
330 362
330 329
330 298
331 332
331 363
331 330
331 299
332 333
332 364
332 331
332 300
333 334
333 365
333 332
333 301
334 335
334 366
334 333
334 302
335 336
335 367
335 334
335 303
336 337
336 368
336 335
336 304
337 338
337 369
337 336
337 305
338 339
338 370
338 337
338 306
339 340
339 371
339 338
339 307
340 341
340 372
340 339
340 308
341 342
341 373
341 340
341 309
342 343
342 374
342 341
342 310
343 344
343 375
343 342
343 311
344 345
344 376
344 343
344 312
345 346
345 377
345 344
345 313
346 347
346 378
346 345
346 314
347 348
347 379
347 346
347 315
348 349
348 380
348 347
348 316
349 350
349 381
349 348
349 317
350 351
350 382
350 349
350 318
351 352
351 383
351 350
351 319
352 384
352 351
352 321
352 320
353 354
353 384
353 385
353 321
354 355
354 386
354 353
354 322
355 356
355 387
355 354
355 323
356 357
356 388
356 355
356 324
357 358
357 389
357 356
357 325
358 359
358 390
358 357
358 326
359 360
359 391
359 358
359 327
